nN = 10;
nR = 60;
nH = 2;

a = [[25, 18, 15, 16, 18, 25, 19, 18, 25, 23, 19, 25, 19, 21, 24, 16, 18, 23, 18, 17, 25, 20, 24, 21, 17, 19, 24, 25, 17, 19, 19, 25, 20, 17, 21, 20, 20, 17, 19, 25, 25, 19, 23, 24, 20, 16, 21, 24, 17, 15, 17, 19, 15, 21, 25, 16, 21, 20, 24, 22], [21, 21, 15, 23, 23, 22, 20, 22, 21, 24, 20, 19, 23, 24, 23, 23, 22, 22, 15, 18, 20, 19, 20, 24, 22, 20, 20, 20, 20, 17, 20, 24, 18, 19, 22, 17, 21, 17, 19, 17, 22, 22, 18, 22, 20, 17, 19, 15, 15, 19, 23, 22, 24, 23, 17, 21, 25, 23, 20, 19], [21, 17, 24, 17, 24, 15, 22, 24, 20, 18, 21, 23, 19, 24, 23, 22, 22, 21, 16, 18, 21, 22, 25, 22, 17, 25, 22, 22, 24, 22, 25, 20, 16, 19, 23, 20, 18, 23, 23, 19, 19, 21, 17, 22, 15, 16, 23, 24, 17, 22, 23, 18, 24, 16, 20, 25, 19, 17, 22, 21], [21, 20, 22, 15, 23, 24, 25, 22, 18, 16, 23, 24, 20, 21, 15, 21, 17, 20, 24, 22, 24, 25, 16, 17, 18, 20, 25, 18, 24, 24, 24, 22, 19, 20, 15, 20, 17, 19, 16, 23, 15, 22, 22, 24, 15, 16, 20, 17, 21, 24, 24, 24, 24, 25, 19, 24, 25, 16, 22, 19], [24, 23, 22, 19, 18, 16, 23, 18, 22, 24, 25, 16, 23, 21, 17, 18, 19, 17, 25, 17, 18, 23, 24, 18, 24, 23, 23, 15, 19, 18, 24, 19, 19, 24, 24, 24, 15, 21, 21, 24, 24, 19, 23, 24, 21, 23, 24, 22, 18, 19, 24, 15, 17, 17, 25, 17, 24, 16, 19, 21], [16, 21, 19, 22, 16, 16, 17, 23, 25, 16, 18, 22, 15, 25, 20, 15, 18, 23, 22, 16, 17, 17, 16, 24, 24, 16, 17, 23, 19, 23, 15, 17, 24, 19, 24, 24, 24, 16, 22, 16, 18, 23, 23, 20, 16, 25, 23, 17, 18, 23, 24, 19, 22, 19, 19, 18, 21, 21, 22, 17], [23, 23, 19, 18, 19, 19, 21, 24, 22, 16, 17, 25, 24, 17, 23, 17, 20, 25, 25, 22, 17, 24, 17, 17, 23, 23, 16, 17, 19, 19, 23, 24, 17, 25, 18, 19, 18, 16, 17, 17, 24, 23, 17, 19, 15, 23, 22, 17, 23, 21, 15, 19, 18, 22, 23, 16, 16, 22, 16, 21], [24, 16, 15, 25, 16, 15, 20, 20, 22, 18, 21, 19, 21, 19, 17, 17, 17, 22, 25, 17, 20, 25, 15, 17, 20, 16, 23, 20, 23, 22, 23, 15, 21, 24, 21, 23, 19, 24, 17, 24, 25, 18, 24, 21, 20, 18, 22, 15, 16, 18, 23, 24, 25, 20, 20, 21, 17, 15, 24, 21], [18, 18, 18, 19, 18, 24, 22, 19, 25, 15, 16, 23, 17, 16, 18, 22, 21, 18, 21, 18, 20, 18, 16, 24, 17, 22, 24, 18, 22, 18, 24, 23, 23, 25, 20, 23, 18, 22, 21, 18, 24, 17, 15, 25, 23, 16, 22, 24, 18, 21, 16, 24, 22, 18, 25, 23, 23, 18, 16, 22], [16, 18, 19, 18, 18, 24, 24, 23, 25, 16, 20, 22, 25, 16, 20, 18, 19, 24, 24, 25, 22, 23, 23, 24, 18, 24, 16, 21, 17, 22, 22, 16, 15, 17, 19, 23, 15, 19, 22, 22, 23, 23, 16, 20, 22, 24, 20, 20, 23, 16, 24, 17, 22, 17, 19, 25, 16, 16, 19, 16]];
c = [[[0, 0, 0, 0, 0, 0, 0, 0, 0, 0, 0, 0, 0, 0, 0, 0, 0, 0, 0, 0, 0, 0, 0, 0, 0, 0, 0, 0, 0, 0, 0, 0, 0, 0, 0, 0, 0, 0, 0, 0, 0, 0, 0, 0, 0, 0, 0, 0, 0, 0, 0, 0, 0, 0, 0, 0, 0, 0, 0, 0], [34, 42, 36, 44, 40, 47, 37, 31, 32, 40, 44, 35, 39, 50, 34, 39, 32, 49, 45, 31, 40, 31, 33, 37, 30, 47, 38, 34, 39, 43, 46, 40, 33, 41, 42, 50, 40, 33, 45, 42, 32, 48, 50, 35, 35, 45, 40, 47, 47, 43, 34, 38, 50, 32, 34, 44, 38, 47, 42, 30], [38, 36, 48, 50, 33, 33, 46, 36, 45, 42, 50, 35, 40, 33, 32, 30, 39, 36, 40, 45, 49, 30, 35, 44, 35, 30, 36, 37, 44, 37, 46, 44, 37, 50, 36, 33, 31, 31, 41, 48, 30, 47, 32, 44, 34, 34, 48, 38, 30, 49, 42, 48, 34, 46, 32, 46, 43, 40, 42, 46], [42, 36, 44, 32, 44, 38, 49, 35, 47, 40, 36, 41, 44, 42, 47, 45, 50, 43, 47, 48, 40, 47, 34, 30, 49, 33, 34, 43, 32, 39, 48, 38, 38, 32, 48, 44, 32, 46, 32, 44, 44, 35, 38, 44, 44, 40, 30, 47, 50, 44, 50, 38, 35, 45, 44, 45, 36, 49, 50, 31], [46, 47, 34, 38, 39, 39, 50, 34, 32, 43, 43, 30, 35, 36, 35, 39, 36, 48, 31, 32, 44, 40, 37, 32, 33, 31, 37, 31, 49, 48, 31, 43, 45, 38, 32, 44, 39, 36, 44, 41, 48, 32, 38, 48, 35, 36, 38, 31, 31, 39, 30, 30, 36, 47, 31, 32, 45, 36, 40, 37], [32, 48, 31, 35, 38, 35, 49, 42, 49, 34, 37, 41, 34, 31, 41, 50, 38, 44, 42, 31, 35, 33, 36, 30, 30, 47, 32, 39, 48, 38, 45, 48, 31, 46, 47, 38, 33, 36, 38, 48, 44, 46, 32, 48, 32, 42, 36, 43, 46, 46, 41, 39, 30, 50, 34, 37, 49, 32, 45, 46], [30, 38, 37, 44, 45, 31, 46, 32, 42, 47, 33, 42, 30, 43, 49, 46, 32, 41, 49, 44, 43, 50, 41, 42, 41, 31, 41, 30, 49, 44, 40, 45, 34, 36, 42, 44, 38, 33, 42, 31, 31, 31, 34, 38, 32, 49, 31, 34, 34, 43, 48, 38, 32, 33, 33, 34, 36, 33, 33, 32], [45, 36, 30, 38, 39, 32, 33, 37, 32, 45, 40, 50, 39, 43, 38, 45, 37, 50, 42, 36, 46, 43, 39, 44, 49, 42, 38, 39, 39, 36, 43, 32, 40, 34, 44, 45, 47, 44, 31, 37, 44, 42, 38, 40, 33, 49, 42, 31, 30, 32, 37, 31, 39, 37, 45, 45, 48, 34, 45, 33], [46, 34, 49, 43, 48, 42, 47, 47, 46, 33, 41, 42, 36, 30, 32, 49, 41, 44, 37, 50, 40, 38, 42, 49, 41, 47, 33, 41, 38, 48, 39, 47, 43, 44, 34, 49, 48, 49, 32, 42, 48, 33, 47, 44, 39, 44, 30, 30, 37, 47, 37, 41, 37, 37, 47, 38, 47, 41, 46, 45], [48, 35, 36, 33, 49, 35, 44, 38, 44, 34, 38, 33, 50, 39, 36, 33, 47, 31, 30, 33, 39, 36, 35, 38, 35, 41, 37, 38, 30, 32, 47, 37, 50, 35, 41, 37, 42, 36, 44, 35, 36, 30, 47, 45, 49, 49, 40, 35, 40, 42, 43, 43, 43, 49, 31, 34, 34, 48, 45, 38]], [[0, 0, 0, 0, 0, 0, 0, 0, 0, 0, 0, 0, 0, 0, 0, 0, 0, 0, 0, 0, 0, 0, 0, 0, 0, 0, 0, 0, 0, 0, 0, 0, 0, 0, 0, 0, 0, 0, 0, 0, 0, 0, 0, 0, 0, 0, 0, 0, 0, 0, 0, 0, 0, 0, 0, 0, 0, 0, 0, 0], [0, 0, 0, 0, 0, 0, 0, 0, 0, 0, 0, 0, 0, 0, 0, 0, 0, 0, 0, 0, 0, 0, 0, 0, 0, 0, 0, 0, 0, 0, 0, 0, 0, 0, 0, 0, 0, 0, 0, 0, 0, 0, 0, 0, 0, 0, 0, 0, 0, 0, 0, 0, 0, 0, 0, 0, 0, 0, 0, 0], [33, 43, 50, 43, 44, 42, 37, 40, 45, 38, 37, 41, 37, 49, 39, 31, 38, 47, 45, 31, 48, 48, 44, 30, 35, 41, 39, 42, 43, 30, 43, 38, 44, 35, 45, 50, 39, 41, 31, 32, 43, 44, 41, 44, 30, 35, 44, 41, 50, 40, 38, 33, 37, 42, 31, 39, 45, 39, 31, 40], [36, 42, 43, 45, 49, 44, 34, 48, 31, 40, 41, 34, 31, 31, 40, 30, 32, 35, 36, 44, 46, 50, 46, 50, 38, 34, 42, 34, 46, 42, 48, 39, 49, 41, 42, 45, 34, 30, 39, 39, 34, 31, 35, 30, 43, 48, 46, 46, 47, 47, 41, 48, 42, 48, 46, 38, 42, 47, 41, 34], [39, 45, 50, 31, 45, 37, 32, 36, 38, 46, 44, 44, 31, 31, 46, 32, 35, 46, 43, 38, 40, 45, 42, 33, 34, 38, 33, 34, 44, 43, 50, 39, 31, 49, 35, 32, 33, 33, 42, 37, 50, 35, 38, 32, 34, 31, 45, 40, 31, 40, 50, 50, 41, 33, 37, 47, 30, 49, 36, 43], [36, 35, 37, 40, 32, 43, 32, 39, 32, 35, 48, 50, 47, 41, 41, 48, 34, 44, 45, 49, 46, 46, 31, 39, 37, 46, 35, 41, 44, 35, 47, 36, 38, 36, 33, 34, 47, 31, 48, 47, 32, 49, 35, 31, 38, 43, 35, 43, 50, 38, 47, 38, 41, 32, 47, 45, 31, 40, 34, 30], [41, 46, 32, 49, 30, 35, 44, 47, 38, 36, 45, 43, 38, 42, 33, 32, 36, 36, 33, 41, 38, 35, 50, 34, 46, 49, 36, 33, 42, 36, 47, 47, 46, 38, 43, 45, 47, 32, 34, 50, 42, 33, 47, 39, 44, 50, 36, 31, 44, 48, 31, 30, 42, 32, 44, 37, 36, 30, 45, 50], [33, 37, 36, 30, 41, 43, 49, 31, 38, 41, 34, 47, 34, 31, 36, 38, 49, 43, 40, 50, 49, 46, 50, 48, 32, 42, 42, 35, 41, 43, 33, 45, 50, 36, 48, 49, 35, 45, 32, 48, 49, 44, 43, 32, 34, 46, 38, 34, 46, 40, 42, 35, 42, 48, 47, 31, 31, 30, 39, 42], [44, 36, 43, 37, 45, 50, 42, 40, 36, 50, 35, 42, 31, 41, 48, 35, 38, 45, 47, 33, 47, 43, 44, 38, 45, 47, 44, 34, 50, 41, 39, 49, 37, 30, 34, 37, 46, 35, 40, 50, 47, 35, 46, 47, 38, 38, 43, 33, 37, 47, 40, 44, 40, 42, 45, 45, 34, 45, 43, 33], [48, 43, 32, 46, 44, 30, 39, 43, 50, 50, 49, 49, 34, 40, 39, 37, 49, 40, 44, 42, 49, 43, 44, 39, 32, 49, 38, 34, 35, 40, 48, 44, 34, 43, 37, 39, 32, 49, 37, 31, 30, 41, 31, 35, 40, 46, 46, 45, 34, 38, 31, 46, 44, 38, 31, 43, 44, 47, 30, 49]], [[0, 0, 0, 0, 0, 0, 0, 0, 0, 0, 0, 0, 0, 0, 0, 0, 0, 0, 0, 0, 0, 0, 0, 0, 0, 0, 0, 0, 0, 0, 0, 0, 0, 0, 0, 0, 0, 0, 0, 0, 0, 0, 0, 0, 0, 0, 0, 0, 0, 0, 0, 0, 0, 0, 0, 0, 0, 0, 0, 0], [0, 0, 0, 0, 0, 0, 0, 0, 0, 0, 0, 0, 0, 0, 0, 0, 0, 0, 0, 0, 0, 0, 0, 0, 0, 0, 0, 0, 0, 0, 0, 0, 0, 0, 0, 0, 0, 0, 0, 0, 0, 0, 0, 0, 0, 0, 0, 0, 0, 0, 0, 0, 0, 0, 0, 0, 0, 0, 0, 0], [0, 0, 0, 0, 0, 0, 0, 0, 0, 0, 0, 0, 0, 0, 0, 0, 0, 0, 0, 0, 0, 0, 0, 0, 0, 0, 0, 0, 0, 0, 0, 0, 0, 0, 0, 0, 0, 0, 0, 0, 0, 0, 0, 0, 0, 0, 0, 0, 0, 0, 0, 0, 0, 0, 0, 0, 0, 0, 0, 0], [38, 44, 46, 50, 31, 37, 35, 32, 48, 46, 40, 50, 49, 49, 32, 49, 32, 37, 43, 42, 35, 34, 34, 31, 45, 40, 31, 34, 32, 41, 34, 43, 41, 34, 44, 48, 34, 39, 31, 40, 48, 41, 47, 40, 31, 36, 42, 37, 50, 43, 39, 38, 36, 45, 39, 50, 31, 38, 34, 34], [43, 41, 47, 32, 43, 44, 48, 34, 45, 37, 35, 36, 49, 30, 31, 32, 31, 48, 32, 42, 34, 43, 41, 45, 31, 43, 43, 37, 31, 38, 35, 49, 44, 34, 36, 36, 39, 45, 46, 44, 38, 32, 46, 50, 31, 43, 49, 38, 35, 30, 46, 37, 32, 40, 50, 31, 47, 43, 43, 31], [33, 38, 49, 42, 30, 30, 33, 46, 39, 33, 45, 50, 31, 34, 45, 34, 50, 50, 30, 37, 39, 30, 38, 41, 33, 44, 31, 46, 33, 48, 38, 35, 37, 39, 40, 34, 46, 44, 37, 36, 37, 41, 33, 43, 50, 49, 47, 38, 42, 32, 36, 34, 36, 43, 33, 50, 43, 35, 34, 44], [49, 30, 37, 41, 34, 41, 37, 41, 35, 41, 46, 46, 50, 32, 43, 38, 31, 48, 43, 46, 48, 44, 43, 31, 34, 46, 47, 38, 33, 30, 35, 34, 31, 41, 30, 42, 44, 42, 41, 42, 38, 41, 35, 46, 49, 32, 38, 45, 37, 35, 36, 48, 47, 44, 38, 40, 39, 44, 30, 38], [47, 33, 36, 49, 48, 49, 45, 39, 34, 35, 50, 35, 35, 46, 39, 42, 47, 42, 32, 36, 50, 44, 36, 45, 38, 43, 43, 30, 30, 42, 49, 50, 42, 40, 48, 43, 45, 37, 32, 49, 41, 44, 33, 32, 31, 48, 50, 43, 38, 37, 33, 48, 49, 36, 45, 43, 35, 47, 34, 43], [32, 35, 43, 38, 41, 33, 39, 37, 41, 44, 43, 34, 36, 42, 49, 47, 37, 35, 47, 30, 36, 42, 42, 46, 43, 39, 49, 45, 43, 36, 39, 45, 30, 38, 50, 37, 49, 32, 32, 43, 32, 49, 35, 50, 41, 42, 37, 38, 35, 40, 31, 40, 47, 32, 39, 37, 50, 48, 42, 37], [39, 32, 31, 36, 32, 41, 34, 40, 43, 42, 49, 35, 32, 31, 34, 31, 50, 37, 31, 50, 49, 31, 40, 44, 42, 43, 38, 40, 41, 47, 31, 37, 37, 45, 39, 41, 47, 45, 46, 44, 48, 37, 48, 44, 39, 39, 37, 32, 37, 36, 38, 33, 48, 42, 37, 46, 35, 33, 50, 47]], [[0, 0, 0, 0, 0, 0, 0, 0, 0, 0, 0, 0, 0, 0, 0, 0, 0, 0, 0, 0, 0, 0, 0, 0, 0, 0, 0, 0, 0, 0, 0, 0, 0, 0, 0, 0, 0, 0, 0, 0, 0, 0, 0, 0, 0, 0, 0, 0, 0, 0, 0, 0, 0, 0, 0, 0, 0, 0, 0, 0], [0, 0, 0, 0, 0, 0, 0, 0, 0, 0, 0, 0, 0, 0, 0, 0, 0, 0, 0, 0, 0, 0, 0, 0, 0, 0, 0, 0, 0, 0, 0, 0, 0, 0, 0, 0, 0, 0, 0, 0, 0, 0, 0, 0, 0, 0, 0, 0, 0, 0, 0, 0, 0, 0, 0, 0, 0, 0, 0, 0], [0, 0, 0, 0, 0, 0, 0, 0, 0, 0, 0, 0, 0, 0, 0, 0, 0, 0, 0, 0, 0, 0, 0, 0, 0, 0, 0, 0, 0, 0, 0, 0, 0, 0, 0, 0, 0, 0, 0, 0, 0, 0, 0, 0, 0, 0, 0, 0, 0, 0, 0, 0, 0, 0, 0, 0, 0, 0, 0, 0], [0, 0, 0, 0, 0, 0, 0, 0, 0, 0, 0, 0, 0, 0, 0, 0, 0, 0, 0, 0, 0, 0, 0, 0, 0, 0, 0, 0, 0, 0, 0, 0, 0, 0, 0, 0, 0, 0, 0, 0, 0, 0, 0, 0, 0, 0, 0, 0, 0, 0, 0, 0, 0, 0, 0, 0, 0, 0, 0, 0], [32, 45, 46, 39, 50, 50, 47, 42, 36, 45, 35, 49, 47, 50, 37, 44, 48, 30, 40, 36, 49, 31, 37, 37, 42, 46, 36, 37, 33, 43, 37, 42, 47, 38, 31, 47, 47, 47, 48, 30, 33, 30, 42, 43, 48, 48, 41, 32, 35, 30, 38, 40, 41, 40, 43, 34, 50, 39, 46, 40], [45, 33, 41, 33, 37, 40, 45, 50, 44, 34, 36, 33, 37, 37, 38, 50, 45, 43, 31, 38, 30, 40, 39, 46, 39, 38, 45, 44, 37, 31, 36, 49, 32, 33, 41, 46, 36, 37, 35, 49, 44, 45, 42, 45, 45, 43, 49, 41, 45, 30, 39, 39, 32, 47, 30, 38, 32, 34, 38, 47], [30, 43, 49, 41, 41, 48, 37, 42, 36, 48, 31, 35, 49, 44, 31, 36, 33, 44, 31, 36, 32, 44, 34, 34, 37, 42, 47, 37, 31, 32, 50, 35, 38, 41, 30, 33, 34, 36, 42, 32, 34, 42, 40, 47, 36, 40, 30, 31, 48, 46, 33, 50, 38, 43, 45, 47, 42, 40, 41, 47], [34, 45, 46, 34, 42, 47, 31, 48, 44, 37, 33, 36, 31, 38, 36, 43, 33, 38, 34, 37, 46, 49, 46, 30, 43, 44, 34, 42, 43, 32, 39, 38, 34, 36, 40, 48, 50, 49, 32, 34, 44, 30, 44, 41, 43, 49, 44, 40, 45, 39, 35, 34, 30, 44, 37, 48, 34, 35, 39, 31], [30, 38, 39, 37, 30, 32, 50, 34, 36, 30, 39, 30, 41, 44, 48, 44, 38, 48, 39, 33, 44, 30, 32, 42, 45, 50, 33, 35, 31, 32, 43, 35, 42, 35, 44, 42, 44, 38, 49, 31, 49, 32, 33, 34, 42, 30, 35, 44, 48, 39, 45, 30, 36, 38, 43, 32, 38, 49, 42, 42], [45, 46, 49, 32, 39, 34, 30, 46, 38, 30, 30, 30, 36, 45, 37, 39, 39, 47, 45, 36, 45, 44, 32, 42, 45, 41, 33, 36, 46, 34, 35, 39, 49, 49, 33, 47, 37, 31, 45, 32, 32, 45, 41, 37, 35, 39, 48, 41, 31, 34, 44, 32, 37, 48, 45, 41, 44, 33, 49, 48]], [[0, 0, 0, 0, 0, 0, 0, 0, 0, 0, 0, 0, 0, 0, 0, 0, 0, 0, 0, 0, 0, 0, 0, 0, 0, 0, 0, 0, 0, 0, 0, 0, 0, 0, 0, 0, 0, 0, 0, 0, 0, 0, 0, 0, 0, 0, 0, 0, 0, 0, 0, 0, 0, 0, 0, 0, 0, 0, 0, 0], [0, 0, 0, 0, 0, 0, 0, 0, 0, 0, 0, 0, 0, 0, 0, 0, 0, 0, 0, 0, 0, 0, 0, 0, 0, 0, 0, 0, 0, 0, 0, 0, 0, 0, 0, 0, 0, 0, 0, 0, 0, 0, 0, 0, 0, 0, 0, 0, 0, 0, 0, 0, 0, 0, 0, 0, 0, 0, 0, 0], [0, 0, 0, 0, 0, 0, 0, 0, 0, 0, 0, 0, 0, 0, 0, 0, 0, 0, 0, 0, 0, 0, 0, 0, 0, 0, 0, 0, 0, 0, 0, 0, 0, 0, 0, 0, 0, 0, 0, 0, 0, 0, 0, 0, 0, 0, 0, 0, 0, 0, 0, 0, 0, 0, 0, 0, 0, 0, 0, 0], [0, 0, 0, 0, 0, 0, 0, 0, 0, 0, 0, 0, 0, 0, 0, 0, 0, 0, 0, 0, 0, 0, 0, 0, 0, 0, 0, 0, 0, 0, 0, 0, 0, 0, 0, 0, 0, 0, 0, 0, 0, 0, 0, 0, 0, 0, 0, 0, 0, 0, 0, 0, 0, 0, 0, 0, 0, 0, 0, 0], [0, 0, 0, 0, 0, 0, 0, 0, 0, 0, 0, 0, 0, 0, 0, 0, 0, 0, 0, 0, 0, 0, 0, 0, 0, 0, 0, 0, 0, 0, 0, 0, 0, 0, 0, 0, 0, 0, 0, 0, 0, 0, 0, 0, 0, 0, 0, 0, 0, 0, 0, 0, 0, 0, 0, 0, 0, 0, 0, 0], [49, 30, 49, 30, 36, 31, 36, 47, 41, 46, 31, 35, 36, 34, 49, 40, 38, 47, 48, 41, 49, 40, 32, 36, 30, 32, 38, 30, 42, 31, 35, 34, 30, 35, 36, 43, 48, 40, 47, 36, 30, 37, 49, 30, 35, 45, 30, 40, 35, 30, 44, 34, 32, 41, 38, 42, 31, 34, 39, 32], [30, 46, 44, 49, 43, 37, 32, 30, 42, 43, 43, 41, 35, 47, 39, 34, 33, 48, 41, 39, 33, 30, 39, 43, 46, 50, 37, 31, 45, 41, 42, 48, 34, 39, 33, 48, 39, 45, 30, 30, 48, 35, 37, 40, 37, 35, 30, 48, 42, 46, 42, 37, 37, 44, 39, 43, 47, 35, 31, 50], [38, 38, 47, 47, 44, 30, 49, 38, 49, 48, 37, 32, 32, 43, 49, 47, 30, 44, 45, 41, 30, 41, 30, 33, 40, 43, 40, 49, 41, 31, 42, 49, 45, 33, 37, 39, 43, 42, 47, 32, 50, 34, 33, 30, 33, 33, 39, 31, 46, 31, 39, 46, 33, 44, 44, 30, 40, 47, 37, 30], [49, 48, 31, 40, 30, 48, 46, 43, 44, 44, 38, 35, 36, 36, 42, 47, 43, 36, 31, 31, 43, 32, 49, 39, 39, 40, 34, 43, 40, 31, 46, 39, 49, 42, 36, 44, 35, 49, 34, 44, 47, 47, 44, 38, 50, 37, 34, 35, 34, 44, 48, 46, 36, 31, 37, 33, 38, 44, 37, 35], [46, 34, 40, 36, 37, 44, 40, 33, 43, 42, 37, 42, 46, 30, 33, 40, 43, 47, 47, 37, 43, 33, 32, 32, 44, 39, 48, 41, 46, 44, 35, 48, 33, 33, 37, 39, 39, 33, 36, 46, 35, 30, 40, 37, 47, 48, 39, 31, 36, 45, 34, 38, 37, 32, 43, 50, 50, 36, 40, 47]], [[0, 0, 0, 0, 0, 0, 0, 0, 0, 0, 0, 0, 0, 0, 0, 0, 0, 0, 0, 0, 0, 0, 0, 0, 0, 0, 0, 0, 0, 0, 0, 0, 0, 0, 0, 0, 0, 0, 0, 0, 0, 0, 0, 0, 0, 0, 0, 0, 0, 0, 0, 0, 0, 0, 0, 0, 0, 0, 0, 0], [0, 0, 0, 0, 0, 0, 0, 0, 0, 0, 0, 0, 0, 0, 0, 0, 0, 0, 0, 0, 0, 0, 0, 0, 0, 0, 0, 0, 0, 0, 0, 0, 0, 0, 0, 0, 0, 0, 0, 0, 0, 0, 0, 0, 0, 0, 0, 0, 0, 0, 0, 0, 0, 0, 0, 0, 0, 0, 0, 0], [0, 0, 0, 0, 0, 0, 0, 0, 0, 0, 0, 0, 0, 0, 0, 0, 0, 0, 0, 0, 0, 0, 0, 0, 0, 0, 0, 0, 0, 0, 0, 0, 0, 0, 0, 0, 0, 0, 0, 0, 0, 0, 0, 0, 0, 0, 0, 0, 0, 0, 0, 0, 0, 0, 0, 0, 0, 0, 0, 0], [0, 0, 0, 0, 0, 0, 0, 0, 0, 0, 0, 0, 0, 0, 0, 0, 0, 0, 0, 0, 0, 0, 0, 0, 0, 0, 0, 0, 0, 0, 0, 0, 0, 0, 0, 0, 0, 0, 0, 0, 0, 0, 0, 0, 0, 0, 0, 0, 0, 0, 0, 0, 0, 0, 0, 0, 0, 0, 0, 0], [0, 0, 0, 0, 0, 0, 0, 0, 0, 0, 0, 0, 0, 0, 0, 0, 0, 0, 0, 0, 0, 0, 0, 0, 0, 0, 0, 0, 0, 0, 0, 0, 0, 0, 0, 0, 0, 0, 0, 0, 0, 0, 0, 0, 0, 0, 0, 0, 0, 0, 0, 0, 0, 0, 0, 0, 0, 0, 0, 0], [0, 0, 0, 0, 0, 0, 0, 0, 0, 0, 0, 0, 0, 0, 0, 0, 0, 0, 0, 0, 0, 0, 0, 0, 0, 0, 0, 0, 0, 0, 0, 0, 0, 0, 0, 0, 0, 0, 0, 0, 0, 0, 0, 0, 0, 0, 0, 0, 0, 0, 0, 0, 0, 0, 0, 0, 0, 0, 0, 0], [39, 44, 37, 46, 44, 32, 30, 41, 35, 43, 37, 39, 50, 41, 48, 45, 45, 31, 42, 39, 48, 33, 36, 37, 34, 45, 36, 31, 41, 45, 39, 31, 36, 36, 30, 34, 39, 33, 41, 47, 37, 37, 46, 48, 34, 42, 38, 40, 32, 43, 38, 37, 31, 50, 34, 35, 38, 42, 41, 48], [41, 47, 49, 35, 45, 31, 39, 35, 46, 37, 46, 44, 39, 34, 41, 39, 30, 39, 30, 33, 32, 40, 34, 45, 41, 43, 41, 32, 49, 41, 44, 50, 48, 46, 32, 36, 43, 42, 43, 48, 46, 50, 48, 44, 49, 44, 46, 42, 45, 36, 35, 38, 46, 40, 37, 33, 33, 30, 46, 43], [43, 30, 41, 42, 46, 43, 48, 41, 30, 49, 45, 42, 32, 49, 48, 35, 34, 43, 31, 33, 44, 32, 40, 41, 33, 48, 37, 46, 42, 37, 33, 33, 44, 42, 41, 36, 40, 35, 50, 37, 48, 37, 49, 39, 46, 46, 41, 50, 30, 33, 35, 37, 40, 37, 38, 38, 47, 47, 42, 45], [31, 31, 44, 40, 42, 32, 41, 49, 50, 41, 50, 31, 43, 45, 50, 45, 43, 50, 46, 33, 48, 46, 42, 50, 37, 42, 46, 37, 48, 38, 39, 35, 47, 34, 45, 43, 48, 47, 36, 30, 38, 41, 44, 41, 33, 45, 48, 30, 40, 40, 40, 48, 47, 31, 45, 39, 32, 47, 43, 32]], [[0, 0, 0, 0, 0, 0, 0, 0, 0, 0, 0, 0, 0, 0, 0, 0, 0, 0, 0, 0, 0, 0, 0, 0, 0, 0, 0, 0, 0, 0, 0, 0, 0, 0, 0, 0, 0, 0, 0, 0, 0, 0, 0, 0, 0, 0, 0, 0, 0, 0, 0, 0, 0, 0, 0, 0, 0, 0, 0, 0], [0, 0, 0, 0, 0, 0, 0, 0, 0, 0, 0, 0, 0, 0, 0, 0, 0, 0, 0, 0, 0, 0, 0, 0, 0, 0, 0, 0, 0, 0, 0, 0, 0, 0, 0, 0, 0, 0, 0, 0, 0, 0, 0, 0, 0, 0, 0, 0, 0, 0, 0, 0, 0, 0, 0, 0, 0, 0, 0, 0], [0, 0, 0, 0, 0, 0, 0, 0, 0, 0, 0, 0, 0, 0, 0, 0, 0, 0, 0, 0, 0, 0, 0, 0, 0, 0, 0, 0, 0, 0, 0, 0, 0, 0, 0, 0, 0, 0, 0, 0, 0, 0, 0, 0, 0, 0, 0, 0, 0, 0, 0, 0, 0, 0, 0, 0, 0, 0, 0, 0], [0, 0, 0, 0, 0, 0, 0, 0, 0, 0, 0, 0, 0, 0, 0, 0, 0, 0, 0, 0, 0, 0, 0, 0, 0, 0, 0, 0, 0, 0, 0, 0, 0, 0, 0, 0, 0, 0, 0, 0, 0, 0, 0, 0, 0, 0, 0, 0, 0, 0, 0, 0, 0, 0, 0, 0, 0, 0, 0, 0], [0, 0, 0, 0, 0, 0, 0, 0, 0, 0, 0, 0, 0, 0, 0, 0, 0, 0, 0, 0, 0, 0, 0, 0, 0, 0, 0, 0, 0, 0, 0, 0, 0, 0, 0, 0, 0, 0, 0, 0, 0, 0, 0, 0, 0, 0, 0, 0, 0, 0, 0, 0, 0, 0, 0, 0, 0, 0, 0, 0], [0, 0, 0, 0, 0, 0, 0, 0, 0, 0, 0, 0, 0, 0, 0, 0, 0, 0, 0, 0, 0, 0, 0, 0, 0, 0, 0, 0, 0, 0, 0, 0, 0, 0, 0, 0, 0, 0, 0, 0, 0, 0, 0, 0, 0, 0, 0, 0, 0, 0, 0, 0, 0, 0, 0, 0, 0, 0, 0, 0], [0, 0, 0, 0, 0, 0, 0, 0, 0, 0, 0, 0, 0, 0, 0, 0, 0, 0, 0, 0, 0, 0, 0, 0, 0, 0, 0, 0, 0, 0, 0, 0, 0, 0, 0, 0, 0, 0, 0, 0, 0, 0, 0, 0, 0, 0, 0, 0, 0, 0, 0, 0, 0, 0, 0, 0, 0, 0, 0, 0], [44, 41, 32, 47, 39, 40, 50, 44, 46, 49, 44, 38, 48, 46, 34, 49, 38, 37, 46, 48, 31, 38, 32, 41, 36, 38, 44, 36, 30, 34, 45, 39, 35, 44, 30, 30, 39, 45, 50, 34, 42, 45, 46, 35, 30, 38, 42, 35, 35, 47, 47, 30, 32, 45, 41, 50, 40, 35, 48, 49], [38, 50, 39, 30, 32, 36, 50, 48, 30, 38, 46, 47, 40, 46, 35, 37, 33, 50, 31, 36, 36, 41, 49, 32, 49, 38, 48, 39, 40, 42, 36, 39, 40, 40, 45, 38, 44, 32, 36, 31, 30, 44, 46, 32, 44, 35, 36, 30, 36, 48, 34, 49, 49, 37, 40, 41, 31, 41, 49, 32], [39, 44, 30, 44, 36, 45, 48, 32, 35, 45, 34, 39, 46, 45, 36, 38, 36, 35, 34, 45, 33, 33, 46, 43, 30, 49, 41, 50, 43, 46, 44, 49, 42, 32, 32, 44, 40, 44, 48, 30, 50, 42, 38, 42, 42, 40, 41, 48, 42, 40, 48, 40, 38, 33, 39, 33, 48, 49, 47, 41]], [[0, 0, 0, 0, 0, 0, 0, 0, 0, 0, 0, 0, 0, 0, 0, 0, 0, 0, 0, 0, 0, 0, 0, 0, 0, 0, 0, 0, 0, 0, 0, 0, 0, 0, 0, 0, 0, 0, 0, 0, 0, 0, 0, 0, 0, 0, 0, 0, 0, 0, 0, 0, 0, 0, 0, 0, 0, 0, 0, 0], [0, 0, 0, 0, 0, 0, 0, 0, 0, 0, 0, 0, 0, 0, 0, 0, 0, 0, 0, 0, 0, 0, 0, 0, 0, 0, 0, 0, 0, 0, 0, 0, 0, 0, 0, 0, 0, 0, 0, 0, 0, 0, 0, 0, 0, 0, 0, 0, 0, 0, 0, 0, 0, 0, 0, 0, 0, 0, 0, 0], [0, 0, 0, 0, 0, 0, 0, 0, 0, 0, 0, 0, 0, 0, 0, 0, 0, 0, 0, 0, 0, 0, 0, 0, 0, 0, 0, 0, 0, 0, 0, 0, 0, 0, 0, 0, 0, 0, 0, 0, 0, 0, 0, 0, 0, 0, 0, 0, 0, 0, 0, 0, 0, 0, 0, 0, 0, 0, 0, 0], [0, 0, 0, 0, 0, 0, 0, 0, 0, 0, 0, 0, 0, 0, 0, 0, 0, 0, 0, 0, 0, 0, 0, 0, 0, 0, 0, 0, 0, 0, 0, 0, 0, 0, 0, 0, 0, 0, 0, 0, 0, 0, 0, 0, 0, 0, 0, 0, 0, 0, 0, 0, 0, 0, 0, 0, 0, 0, 0, 0], [0, 0, 0, 0, 0, 0, 0, 0, 0, 0, 0, 0, 0, 0, 0, 0, 0, 0, 0, 0, 0, 0, 0, 0, 0, 0, 0, 0, 0, 0, 0, 0, 0, 0, 0, 0, 0, 0, 0, 0, 0, 0, 0, 0, 0, 0, 0, 0, 0, 0, 0, 0, 0, 0, 0, 0, 0, 0, 0, 0], [0, 0, 0, 0, 0, 0, 0, 0, 0, 0, 0, 0, 0, 0, 0, 0, 0, 0, 0, 0, 0, 0, 0, 0, 0, 0, 0, 0, 0, 0, 0, 0, 0, 0, 0, 0, 0, 0, 0, 0, 0, 0, 0, 0, 0, 0, 0, 0, 0, 0, 0, 0, 0, 0, 0, 0, 0, 0, 0, 0], [0, 0, 0, 0, 0, 0, 0, 0, 0, 0, 0, 0, 0, 0, 0, 0, 0, 0, 0, 0, 0, 0, 0, 0, 0, 0, 0, 0, 0, 0, 0, 0, 0, 0, 0, 0, 0, 0, 0, 0, 0, 0, 0, 0, 0, 0, 0, 0, 0, 0, 0, 0, 0, 0, 0, 0, 0, 0, 0, 0], [0, 0, 0, 0, 0, 0, 0, 0, 0, 0, 0, 0, 0, 0, 0, 0, 0, 0, 0, 0, 0, 0, 0, 0, 0, 0, 0, 0, 0, 0, 0, 0, 0, 0, 0, 0, 0, 0, 0, 0, 0, 0, 0, 0, 0, 0, 0, 0, 0, 0, 0, 0, 0, 0, 0, 0, 0, 0, 0, 0], [45, 34, 49, 42, 44, 39, 38, 31, 49, 49, 47, 30, 34, 36, 34, 31, 41, 34, 40, 43, 47, 47, 30, 35, 50, 43, 48, 41, 47, 37, 36, 35, 42, 45, 46, 48, 42, 40, 39, 44, 41, 46, 44, 30, 32, 42, 31, 33, 30, 33, 47, 42, 50, 38, 33, 48, 35, 48, 50, 45], [31, 30, 46, 41, 32, 33, 45, 47, 33, 48, 36, 36, 47, 40, 47, 42, 50, 35, 48, 44, 40, 43, 39, 39, 30, 43, 41, 38, 49, 42, 36, 42, 31, 47, 45, 38, 33, 44, 36, 45, 39, 38, 50, 33, 40, 32, 31, 44, 32, 48, 44, 50, 42, 36, 45, 40, 44, 50, 33, 45]], [[0, 0, 0, 0, 0, 0, 0, 0, 0, 0, 0, 0, 0, 0, 0, 0, 0, 0, 0, 0, 0, 0, 0, 0, 0, 0, 0, 0, 0, 0, 0, 0, 0, 0, 0, 0, 0, 0, 0, 0, 0, 0, 0, 0, 0, 0, 0, 0, 0, 0, 0, 0, 0, 0, 0, 0, 0, 0, 0, 0], [0, 0, 0, 0, 0, 0, 0, 0, 0, 0, 0, 0, 0, 0, 0, 0, 0, 0, 0, 0, 0, 0, 0, 0, 0, 0, 0, 0, 0, 0, 0, 0, 0, 0, 0, 0, 0, 0, 0, 0, 0, 0, 0, 0, 0, 0, 0, 0, 0, 0, 0, 0, 0, 0, 0, 0, 0, 0, 0, 0], [0, 0, 0, 0, 0, 0, 0, 0, 0, 0, 0, 0, 0, 0, 0, 0, 0, 0, 0, 0, 0, 0, 0, 0, 0, 0, 0, 0, 0, 0, 0, 0, 0, 0, 0, 0, 0, 0, 0, 0, 0, 0, 0, 0, 0, 0, 0, 0, 0, 0, 0, 0, 0, 0, 0, 0, 0, 0, 0, 0], [0, 0, 0, 0, 0, 0, 0, 0, 0, 0, 0, 0, 0, 0, 0, 0, 0, 0, 0, 0, 0, 0, 0, 0, 0, 0, 0, 0, 0, 0, 0, 0, 0, 0, 0, 0, 0, 0, 0, 0, 0, 0, 0, 0, 0, 0, 0, 0, 0, 0, 0, 0, 0, 0, 0, 0, 0, 0, 0, 0], [0, 0, 0, 0, 0, 0, 0, 0, 0, 0, 0, 0, 0, 0, 0, 0, 0, 0, 0, 0, 0, 0, 0, 0, 0, 0, 0, 0, 0, 0, 0, 0, 0, 0, 0, 0, 0, 0, 0, 0, 0, 0, 0, 0, 0, 0, 0, 0, 0, 0, 0, 0, 0, 0, 0, 0, 0, 0, 0, 0], [0, 0, 0, 0, 0, 0, 0, 0, 0, 0, 0, 0, 0, 0, 0, 0, 0, 0, 0, 0, 0, 0, 0, 0, 0, 0, 0, 0, 0, 0, 0, 0, 0, 0, 0, 0, 0, 0, 0, 0, 0, 0, 0, 0, 0, 0, 0, 0, 0, 0, 0, 0, 0, 0, 0, 0, 0, 0, 0, 0], [0, 0, 0, 0, 0, 0, 0, 0, 0, 0, 0, 0, 0, 0, 0, 0, 0, 0, 0, 0, 0, 0, 0, 0, 0, 0, 0, 0, 0, 0, 0, 0, 0, 0, 0, 0, 0, 0, 0, 0, 0, 0, 0, 0, 0, 0, 0, 0, 0, 0, 0, 0, 0, 0, 0, 0, 0, 0, 0, 0], [0, 0, 0, 0, 0, 0, 0, 0, 0, 0, 0, 0, 0, 0, 0, 0, 0, 0, 0, 0, 0, 0, 0, 0, 0, 0, 0, 0, 0, 0, 0, 0, 0, 0, 0, 0, 0, 0, 0, 0, 0, 0, 0, 0, 0, 0, 0, 0, 0, 0, 0, 0, 0, 0, 0, 0, 0, 0, 0, 0], [0, 0, 0, 0, 0, 0, 0, 0, 0, 0, 0, 0, 0, 0, 0, 0, 0, 0, 0, 0, 0, 0, 0, 0, 0, 0, 0, 0, 0, 0, 0, 0, 0, 0, 0, 0, 0, 0, 0, 0, 0, 0, 0, 0, 0, 0, 0, 0, 0, 0, 0, 0, 0, 0, 0, 0, 0, 0, 0, 0], [39, 45, 42, 44, 45, 44, 33, 50, 49, 45, 35, 31, 36, 50, 49, 43, 44, 49, 38, 49, 35, 44, 45, 35, 42, 33, 45, 44, 39, 38, 44, 37, 46, 34, 43, 40, 46, 48, 40, 35, 46, 42, 37, 42, 40, 50, 41, 42, 49, 50, 47, 44, 36, 44, 44, 49, 36, 44, 39, 38]], [[0, 0, 0, 0, 0, 0, 0, 0, 0, 0, 0, 0, 0, 0, 0, 0, 0, 0, 0, 0, 0, 0, 0, 0, 0, 0, 0, 0, 0, 0, 0, 0, 0, 0, 0, 0, 0, 0, 0, 0, 0, 0, 0, 0, 0, 0, 0, 0, 0, 0, 0, 0, 0, 0, 0, 0, 0, 0, 0, 0], [0, 0, 0, 0, 0, 0, 0, 0, 0, 0, 0, 0, 0, 0, 0, 0, 0, 0, 0, 0, 0, 0, 0, 0, 0, 0, 0, 0, 0, 0, 0, 0, 0, 0, 0, 0, 0, 0, 0, 0, 0, 0, 0, 0, 0, 0, 0, 0, 0, 0, 0, 0, 0, 0, 0, 0, 0, 0, 0, 0], [0, 0, 0, 0, 0, 0, 0, 0, 0, 0, 0, 0, 0, 0, 0, 0, 0, 0, 0, 0, 0, 0, 0, 0, 0, 0, 0, 0, 0, 0, 0, 0, 0, 0, 0, 0, 0, 0, 0, 0, 0, 0, 0, 0, 0, 0, 0, 0, 0, 0, 0, 0, 0, 0, 0, 0, 0, 0, 0, 0], [0, 0, 0, 0, 0, 0, 0, 0, 0, 0, 0, 0, 0, 0, 0, 0, 0, 0, 0, 0, 0, 0, 0, 0, 0, 0, 0, 0, 0, 0, 0, 0, 0, 0, 0, 0, 0, 0, 0, 0, 0, 0, 0, 0, 0, 0, 0, 0, 0, 0, 0, 0, 0, 0, 0, 0, 0, 0, 0, 0], [0, 0, 0, 0, 0, 0, 0, 0, 0, 0, 0, 0, 0, 0, 0, 0, 0, 0, 0, 0, 0, 0, 0, 0, 0, 0, 0, 0, 0, 0, 0, 0, 0, 0, 0, 0, 0, 0, 0, 0, 0, 0, 0, 0, 0, 0, 0, 0, 0, 0, 0, 0, 0, 0, 0, 0, 0, 0, 0, 0], [0, 0, 0, 0, 0, 0, 0, 0, 0, 0, 0, 0, 0, 0, 0, 0, 0, 0, 0, 0, 0, 0, 0, 0, 0, 0, 0, 0, 0, 0, 0, 0, 0, 0, 0, 0, 0, 0, 0, 0, 0, 0, 0, 0, 0, 0, 0, 0, 0, 0, 0, 0, 0, 0, 0, 0, 0, 0, 0, 0], [0, 0, 0, 0, 0, 0, 0, 0, 0, 0, 0, 0, 0, 0, 0, 0, 0, 0, 0, 0, 0, 0, 0, 0, 0, 0, 0, 0, 0, 0, 0, 0, 0, 0, 0, 0, 0, 0, 0, 0, 0, 0, 0, 0, 0, 0, 0, 0, 0, 0, 0, 0, 0, 0, 0, 0, 0, 0, 0, 0], [0, 0, 0, 0, 0, 0, 0, 0, 0, 0, 0, 0, 0, 0, 0, 0, 0, 0, 0, 0, 0, 0, 0, 0, 0, 0, 0, 0, 0, 0, 0, 0, 0, 0, 0, 0, 0, 0, 0, 0, 0, 0, 0, 0, 0, 0, 0, 0, 0, 0, 0, 0, 0, 0, 0, 0, 0, 0, 0, 0], [0, 0, 0, 0, 0, 0, 0, 0, 0, 0, 0, 0, 0, 0, 0, 0, 0, 0, 0, 0, 0, 0, 0, 0, 0, 0, 0, 0, 0, 0, 0, 0, 0, 0, 0, 0, 0, 0, 0, 0, 0, 0, 0, 0, 0, 0, 0, 0, 0, 0, 0, 0, 0, 0, 0, 0, 0, 0, 0, 0], [0, 0, 0, 0, 0, 0, 0, 0, 0, 0, 0, 0, 0, 0, 0, 0, 0, 0, 0, 0, 0, 0, 0, 0, 0, 0, 0, 0, 0, 0, 0, 0, 0, 0, 0, 0, 0, 0, 0, 0, 0, 0, 0, 0, 0, 0, 0, 0, 0, 0, 0, 0, 0, 0, 0, 0, 0, 0, 0, 0]]];

q = [[[17, 125], [25, 120], [6, 106], [14, 116], [16, 119], [12, 106], [19, 121], [19, 123], [5, 118], [16, 121], [23, 122], [16, 105], [15, 124], [22, 110], [19, 107], [10, 119], [25, 120], [7, 123], [24, 120], [9, 120], [7, 125], [24, 110], [22, 120], [23, 115], [10, 107], [25, 125], [21, 108], [16, 110], [13, 125], [17, 118], [9, 119], [6, 113], [16, 106], [23, 109], [11, 120], [22, 112], [14, 115], [22, 114], [5, 121], [14, 121], [9, 111], [19, 109], [24, 124], [16, 114], [6, 121], [21, 107], [19, 113], [11, 108], [22, 120], [22, 107], [19, 115], [24, 120], [12, 117], [20, 120], [15, 116], [17, 119], [21, 111], [17, 105], [25, 124], [19, 122]], [[6, 106], [24, 110], [12, 114], [24, 110], [14, 115], [22, 108], [11, 115], [10, 106], [25, 117], [12, 123], [20, 119], [17, 121], [18, 122], [22, 105], [11, 117], [15, 125], [20, 109], [20, 112], [21, 124], [12, 119], [5, 112], [5, 120], [25, 120], [15, 110], [24, 110], [17, 119], [7, 108], [21, 105], [11, 108], [12, 111], [24, 111], [16, 124], [12, 108], [5, 119], [9, 114], [11, 125], [14, 122], [7, 122], [14, 108], [9, 115], [13, 125], [7, 114], [25, 113], [12, 125], [6, 125], [10, 108], [7, 112], [15, 105], [13, 107], [22, 119], [6, 124], [10, 113], [5, 112], [21, 107], [5, 111], [16, 116], [16, 115], [13, 106], [5, 111], [23, 122]], [[21, 123], [21, 112], [7, 114], [5, 113], [20, 118], [16, 121], [9, 114], [14, 108], [22, 116], [12, 124], [9, 108], [8, 121], [14, 122], [17, 122], [22, 120], [9, 125], [17, 109], [8, 112], [12, 109], [15, 109], [24, 111], [19, 123], [6, 112], [8, 106], [16, 122], [14, 117], [14, 114], [23, 122], [14, 114], [23, 107], [5, 112], [21, 110], [17, 105], [25, 118], [13, 113], [23, 109], [23, 108], [12, 105], [20, 115], [19, 118], [16, 109], [15, 124], [22, 107], [19, 125], [18, 110], [7, 116], [5, 120], [20, 105], [19, 116], [9, 110], [23, 107], [14, 118], [14, 115], [11, 118], [20, 112], [15, 112], [25, 118], [17, 107], [12, 112], [13, 118]], [[22, 125], [14, 112], [19, 117], [7, 116], [5, 123], [20, 105], [19, 115], [5, 113], [20, 121], [7, 117], [12, 110], [8, 106], [13, 125], [18, 112], [16, 110], [9, 107], [23, 124], [16, 113], [16, 119], [9, 125], [25, 116], [8, 105], [13, 124], [16, 109], [6, 113], [8, 106], [5, 109], [18, 124], [12, 116], [5, 116], [12, 106], [16, 123], [12, 125], [25, 106], [5, 108], [24, 107], [23, 112], [23, 108], [25, 125], [22, 122], [17, 118], [17, 125], [21, 125], [24, 109], [16, 111], [7, 117], [17, 121], [9, 107], [13, 122], [24, 117], [22, 108], [25, 110], [25, 122], [23, 118], [12, 115], [12, 107], [8, 111], [24, 106], [14, 114], [8, 106]], [[17, 123], [10, 107], [18, 121], [13, 115], [14, 117], [18, 107], [6, 117], [6, 119], [11, 110], [9, 122], [12, 125], [20, 125], [15, 125], [12, 119], [18, 108], [18, 115], [11, 114], [7, 111], [9, 122], [25, 109], [13, 106], [9, 125], [10, 113], [9, 114], [15, 109], [10, 114], [19, 115], [15, 108], [15, 116], [14, 120], [25, 109], [6, 108], [12, 117], [21, 117], [9, 125], [10, 117], [18, 115], [20, 114], [13, 120], [17, 113], [17, 109], [21, 116], [15, 106], [9, 114], [22, 123], [11, 106], [14, 109], [14, 109], [13, 125], [16, 109], [12, 111], [5, 120], [14, 117], [18, 105], [24, 107], [9, 105], [19, 106], [14, 120], [9, 122], [24, 118]], [[24, 114], [23, 116], [6, 112], [13, 108], [9, 125], [17, 121], [18, 107], [21, 105], [10, 125], [15, 120], [15, 121], [18, 122], [14, 107], [15, 122], [11, 124], [24, 122], [20, 119], [24, 105], [16, 108], [20, 109], [23, 110], [25, 110], [9, 114], [21, 121], [21, 109], [13, 119], [9, 115], [24, 110], [12, 108], [8, 114], [14, 123], [21, 121], [16, 114], [25, 122], [20, 121], [23, 123], [8, 114], [16, 111], [20, 117], [10, 114], [5, 111], [16, 116], [11, 119], [20, 124], [10, 107], [11, 105], [21, 123], [15, 117], [12, 122], [12, 109], [21, 116], [10, 106], [19, 124], [18, 112], [10, 122], [25, 120], [23, 106], [16, 122], [8, 116], [25, 118]], [[5, 113], [21, 106], [24, 114], [13, 124], [21, 121], [11, 109], [18, 115], [12, 110], [24, 109], [22, 115], [20, 122], [21, 110], [16, 105], [18, 108], [8, 120], [25, 125], [7, 106], [19, 107], [11, 122], [12, 105], [18, 105], [5, 124], [15, 117], [7, 123], [12, 119], [5, 121], [23, 116], [16, 109], [12, 106], [5, 111], [8, 111], [24, 105], [25, 105], [10, 108], [13, 123], [24, 105], [22, 114], [20, 111], [12, 118], [16, 118], [18, 121], [9, 117], [21, 106], [17, 115], [19, 121], [6, 119], [21, 122], [12, 124], [6, 105], [9, 117], [24, 111], [10, 124], [8, 120], [13, 124], [13, 117], [13, 122], [23, 106], [25, 108], [8, 107], [22, 119]], [[9, 108], [19, 118], [23, 115], [7, 105], [5, 120], [8, 117], [16, 121], [17, 120], [21, 113], [15, 105], [15, 117], [12, 116], [21, 108], [24, 122], [15, 121], [6, 113], [7, 109], [11, 110], [5, 118], [13, 123], [10, 116], [16, 105], [19, 105], [9, 105], [22, 118], [8, 121], [21, 114], [17, 111], [7, 118], [8, 106], [25, 118], [23, 117], [20, 119], [8, 106], [14, 106], [16, 110], [5, 107], [16, 109], [5, 120], [10, 124], [17, 114], [6, 115], [18, 124], [9, 115], [19, 110], [9, 110], [11, 114], [18, 123], [23, 117], [14, 105], [24, 111], [13, 106], [20, 119], [10, 112], [22, 122], [19, 117], [6, 120], [15, 121], [18, 118], [15, 112]], [[23, 117], [15, 108], [16, 108], [20, 108], [19, 108], [23, 113], [8, 117], [15, 119], [24, 110], [25, 116], [25, 115], [5, 116], [13, 109], [14, 105], [12, 118], [25, 106], [5, 122], [11, 108], [23, 106], [24, 105], [18, 117], [7, 120], [17, 119], [10, 119], [25, 108], [21, 116], [13, 106], [19, 122], [18, 106], [6, 114], [8, 122], [9, 111], [21, 106], [18, 111], [5, 106], [12, 125], [8, 117], [7, 106], [19, 108], [24, 123], [7, 112], [9, 120], [22, 124], [7, 122], [9, 122], [10, 111], [14, 107], [24, 125], [22, 116], [24, 112], [15, 116], [16, 113], [11, 108], [19, 120], [18, 111], [18, 123], [16, 112], [8, 123], [6, 121], [8, 120]], [[10, 112], [14, 116], [24, 111], [13, 116], [18, 113], [11, 124], [13, 109], [24, 120], [22, 115], [7, 113], [12, 111], [17, 123], [23, 112], [12, 118], [15, 109], [5, 118], [5, 109], [16, 110], [20, 119], [22, 115], [18, 114], [12, 117], [20, 113], [12, 120], [9, 119], [5, 116], [7, 122], [6, 120], [25, 111], [6, 106], [7, 122], [13, 116], [7, 119], [23, 123], [21, 108], [21, 105], [18, 115], [8, 107], [23, 120], [7, 114], [11, 124], [9, 124], [15, 113], [19, 120], [9, 111], [13, 108], [22, 124], [24, 111], [18, 124], [14, 117], [11, 119], [15, 112], [15, 108], [18, 124], [22, 110], [13, 107], [17, 105], [14, 122], [11, 115], [11, 115]]];
Q = [[79, 557], [67, 551], [74, 549], [73, 551], [67, 551], [78, 555], [73, 549], [68, 549], [73, 549], [69, 554]];
